<number of tasks>
21

<cycle time>
14

<task times>
1 4
2 3
3 9
4 5
5 9
6 4
7 8
8 7
9 5
10 1
11 3
12 1
13 5
14 3
15 5
16 3
17 13
18 5
19 2
20 3
21 7

<precedence relations>
1,2
1,3
2,21
3,4
4,5
4,21
5,6
5,7
6,8
7,8
7,14
8,9
9,10
9,11
9,12
9,13
10,15
11,15
12,15
13,17
13,18
14,19
15,16
15,18
16,17
17,20
18,19

<setup times forward>
2,4:1
2,5:1
2,8:1
2,9:1
2,10:1
2,11:1
2,12:1
2,13:1
2,14:1
2,15:1
2,18:1
2,19:1
2,20:1
3,4:1
4,2:1
4,21:1
5,2:1
5,6:1
5,7:1
5,21:1
6,8:1
6,14:1
7,8:1
7,14:1
8,2:1
8,14:2
8,21:1
9,2:1
9,14:2
9,21:1
10,2:1
10,14:2
10,21:1
11,2:1
11,14:2
11,21:1
12,2:1
12,14:2
12,21:1
13,2:1
13,14:2
13,16:1
13,17:1
13,18:2
13,21:1
14,2:1
14,6:1
14,8:2
14,9:2
14,10:2
14,11:2
14,12:2
14,13:2
14,15:2
14,16:1
14,17:1
14,21:1
15,2:1
15,14:2
15,16:1
15,18:2
15,21:1
16,13:1
16,14:1
16,18:1
16,19:1
17,14:1
17,18:1
17,19:1
17,20:1
18,2:1
18,16:1
18,17:1
18,21:1
19,2:1
19,16:1
19,17:1
19,21:1
20,2:1
20,21:1
21,5:1
21,8:1
21,9:1
21,10:1
21,11:1
21,12:1
21,13:1
21,14:1
21,15:1
21,18:1
21,19:1
21,20:1

<setup times backward>
2,14:1
2,18:1
2,19:1
2,20:1
4,1:1
4,2:1
4,3:1
5,1:1
5,2:1
5,3:1
5,21:1
6,14:1
8,1:1
8,2:1
8,3:1
8,6:1
8,7:1
8,14:2
8,21:1
9,1:1
9,2:1
9,3:1
9,6:1
9,7:1
9,14:2
9,21:1
10,1:1
10,2:1
10,3:1
10,6:1
10,7:1
10,14:2
10,21:1
11,1:1
11,2:1
11,3:1
11,6:1
11,7:1
11,14:2
11,21:1
12,1:1
12,2:1
12,3:1
12,6:1
12,7:1
12,14:2
12,21:1
13,1:1
13,2:1
13,3:1
13,6:1
13,7:1
13,14:2
13,16:1
13,21:1
15,1:1
15,2:1
15,3:1
15,6:1
15,7:1
15,14:2
15,21:1
16,14:1
16,18:1
16,19:1
17,14:1
17,18:1
17,19:1
21,14:1
21,18:1
21,19:1
21,20:1

<end>

<optimal SALBP-1 value>
8


<rand seed>
467321153

